&CONTROL
  prefix = 'Fe'
  pseudo_dir = '../../pseudos_dojo'
  calculation = 'nscf'
  outdir = '.'
  verbosity = 'high'
  nstep = 20000
  disk_io = 'low'
/
&SYSTEM
               ibrav = 0
                 nat = 2
                ntyp = 2
             ecutwfc = 120.0
             occupations = 'fixed'
             nspin = 2
    occupations               = "smearing"
    smearing                  = "gaussian"
    starting_magnetization(1) =  4.00000e-01
    degauss                   =   1.0000000000d-03
    force_symmorphic = .true.
    nbnd = 30
/
&ELECTRONS
  conv_thr =   1.0000000000d-10
  electron_maxstep = 1000

/&end
&IONS
/
&cell
  cell_dynamics = "bfgs"
/
ATOMIC_SPECIES
    Fe1     55.845    Fe.upf
   Fe2     55.845    Fe.upf
CELL_PARAMETERS angstrom
      2.8400520000       0.0000000000       0.0000000000
      0.0000000000       2.8400520000       0.0000000000
      0.0000000000       0.0000000000       2.8400520000

ATOMIC_POSITIONS (crystal)
Fe1           0.0000000000       0.0000000000       0.0000000000
Fe2           0.5000000000       0.5000000000       0.5000000000
K_POINTS automatic
    4  4  4  0  0  0

