&CONTROL
  prefix = 'Fe'
  pseudo_dir = '../../pseudos_dojo'
  calculation = 'scf'
  outdir = '.'
  verbosity = 'high'
  nstep = 20000
/
&SYSTEM
               ibrav = 0
                 nat = 2
                ntyp = 1
             ecutwfc = 60.0
             occupations = 'fixed'
             nspin = 2
    occupations               = "smearing"
    smearing                  = "gaussian"
    starting_magnetization(1) =  4.00000e-01
    degauss                   =   1.0000000000d-03
/
&ELECTRONS
  conv_thr =   1.0000000000d-10
  electron_maxstep = 1000
/&end
&IONS
/
&cell
  cell_dynamics = "bfgs"
/
ATOMIC_SPECIES
   Fe     55.845    Fe.upf
CELL_PARAMETERS angstrom
      2.8400520000       0.0000000000       0.0000000000
      0.0000000000       2.8400520000       0.0000000000
      0.0000000000       0.0000000000       2.8400520000

ATOMIC_POSITIONS (crystal)
Fe           0.0000000000       0.0000000000       0.0000000000
Fe           0.5000000000       0.5000000000       0.5000000000
K_POINTS automatic
    4  4  4  0  0  0

