phonons on a grid 
 &inputph 
  nq1 = 2, 
  nq2 = 1, 
  nq3 = 3, 
  fildyn = 'BP.dyn.xml', 
  tr2_ph = 1e-15, 
  prefix = 'BP', 
  trans = .true., 
  electron_phonon = 'dvscf', 
  fildvscf = 'dvscf', 
  ldisp = .true., 
  !lraman = .true.
  alpha_mix(1) = 0.5, 
/ 
